34
0 0
3 20
25
18
3 0
12 14
29
21
12 0
17 9
30
21
17 0
20 26
27
20
20 0
23 26
26
19
23 0
26 34
28
20
0 20
15 26
24
18
0 26
10 32
23
17
26 0
31 12
22
17
31 0
34 22
21
16
26 12
29 32
20
15
10 26
21 32
19
14
0 32
10 40
18
13
10 32
23 38
16
12
29 22
32 45
17
12
10 38
19 54
15
11
19 38
27 48
14
11
32 22
34 41
13
10
0 40
3 62
12
9
19 48
32 53
11
8
3 40
10 49
10
8
3 49
8 68
9
7
32 41
34 67
8
6
19 53
24 64
6
5
24 53
27 78
3
3
8 49
10 83
4
3
27 53
29 83
7
6
10 54
14 73
2
2
14 64
21 73
5
4
10 73
19 81
0
1
0 68
8 83
1
1
